# vtk DataFile Version 2.0
3D triangulation data
ASCII

DATASET POLYDATA
POINTS 410 float
42.5999985	0	0.00
529.5	270.5	0.00
484.5	293	0.00
469.5	293	0.00
462	290	0.00
424.5	275	0.00
412.5	275	0.00
0	0	0.00
1028.40002	0	0.00
541.5	270.5	0.00
2056.80005	0	0.00
-1028.40002	0	0.00
-1028.40002	-293	0.00
2056.80005	-293	0.00
96.6999969	30.0555553	0.00
150.800003	60.1111107	0.00
204.899994	90.1666641	0.00
259	120.222221	0.00
313.100006	150.277771	0.00
367.200012	180.333328	0.00
421.299988	210.388885	0.00
475.399994	240.444443	0.00
360.9375	240.625	0.00
309.375	206.25	0.00
257.8125	171.875	0.00
206.25	137.5	0.00
154.6875	103.125	0.00
103.125	68.75	0.00
51.5625	34.375	0.00
104.212502	0	0.00
165.824997	0	0.00
227.4375	0	0.00
289.049988	0	0.00
350.662506	0	0.00
412.274994	0	0.00
473.887512	0	0.00
535.5	0	0.00
597.112488	0	0.00
658.724976	0	0.00
720.337524	0	0.00
781.950012	0	0.00
843.5625	0	0.00
905.174988	0	0.00
966.787476	0	0.00
974.299988	30.0555553	0.00
920.200012	60.1111107	0.00
866.099976	90.1666641	0.00
812	120.222221	0.00
757.900024	150.277771	0.00
703.799988	180.333328	0.00
649.700012	210.388885	0.00
595.599976	240.444443	0.00
1996.30591	0	0.00
1935.81177	0	0.00
1875.31763	0	0.00
1814.82349	0	0.00
1754.32947	0	0.00
1693.83533	0	0.00
1633.34119	0	0.00
1572.84705	0	0.00
1512.35291	0	0.00
1451.85876	0	0.00
1391.36475	0	0.00
1330.87061	0	0.00
1270.37646	0	0.00
1209.88232	0	0.00
1149.38818	0	0.00
1088.89417	0	0.00
-60.4941177	0	0.00
-120.988235	0	0.00
-181.482346	0	0.00
-241.976471	0	0.00
-302.470581	0	0.00
-362.964691	0	0.00
-423.458832	0	0.00
-483.952942	0	0.00
-544.447083	0	0.00
-604.941162	0	0.00
-665.435303	0	0.00
-725.929382	0	0.00
-786.423523	0	0.00
-846.917664	0	0.00
-907.411743	0	0.00
-967.905884	0	0.00
-1028.40002	-58.5999985	0.00
-1028.40002	-117.199997	0.00
-1028.40002	-175.800003	0.00
-1028.40002	-234.399994	0.00
-967.905884	-293	0.00
-907.411743	-293	0.00
-846.917664	-293	0.00
-786.423523	-293	0.00
-725.929382	-293	0.00
-665.435303	-293	0.00
-604.941162	-293	0.00
-544.447083	-293	0.00
-483.952942	-293	0.00
-423.458832	-293	0.00
-362.964691	-293	0.00
-302.470581	-293	0.00
-241.976471	-293	0.00
-181.482346	-293	0.00
-120.988235	-293	0.00
-60.4941177	-293	0.00
0	-293	0.00
60.4941177	-293	0.00
120.988235	-293	0.00
181.482346	-293	0.00
241.976471	-293	0.00
302.470581	-293	0.00
362.964691	-293	0.00
423.458832	-293	0.00
483.952942	-293	0.00
544.447083	-293	0.00
604.941162	-293	0.00
665.435303	-293	0.00
725.929382	-293	0.00
786.423523	-293	0.00
846.917664	-293	0.00
907.411743	-293	0.00
967.905884	-293	0.00
1028.40002	-293	0.00
1088.89417	-293	0.00
1149.38818	-293	0.00
1209.88232	-293	0.00
1270.37646	-293	0.00
1330.87061	-293	0.00
1391.36475	-293	0.00
1451.85876	-293	0.00
1512.35291	-293	0.00
1572.84705	-293	0.00
1633.34119	-293	0.00
1693.83533	-293	0.00
1754.32947	-293	0.00
1814.82349	-293	0.00
1875.31763	-293	0.00
1935.81177	-293	0.00
1996.30591	-293	0.00
2056.80005	-234.399994	0.00
2056.80005	-175.800003	0.00
2056.80005	-117.199997	0.00
2056.80005	-58.5999985	0.00
471.167908	283.055817	0.00
425.19931	251.627426	0.00
456.924744	268.516754	0.00
483.498535	271.103394	0.00
531.395203	219.517288	0.00
584.081848	170.100311	0.00
473.803345	182.471436	0.00
420.469666	151.520294	0.00
368.46347	121.596687	0.00
315.835571	90.7699509	0.00
259.497559	54.6470261	0.00
812.361328	58.1457024	0.00
745.886047	54.3445282	0.00
685.372803	52.6287689	0.00
627.191284	50.9942894	0.00
568.037964	52.9562721	0.00
506.198273	54.9363785	0.00
443.363098	54.6301193	0.00
375.142426	58.1291046	0.00
650.305176	145.752792	0.00
709.096191	111.142525	0.00
520.967651	159.221222	0.00
869.479797	41.6846962	0.00
542.836121	109.649231	0.00
474.931061	115.98262	0.00
416.473938	100.371765	0.00
654.988708	93.1166534	0.00
604.573486	103.761597	0.00
201.692017	40.9849586	0.00
318.037628	40.7092171	0.00
767.44873	98.8265533	0.00
-914.807739	-103.947647	0.00
-785.668213	-98.6965103	0.00
-663.477295	-97.8410416	0.00
-541.786377	-97.8093338	0.00
-419.902039	-97.8924866	0.00
-299.426514	-101.393478	0.00
-171.900833	-105.166107	0.00
-47.0048981	-102.015976	0.00
91.2073212	-95.2652359	0.00
200.411224	-85.9028702	0.00
339.515869	-91.8988342	0.00
464.659637	-92.0570602	0.00
587.805481	-91.9828415	0.00
710.901855	-92.0147324	0.00
833.521973	-92.7191696	0.00
956.781189	-92.551506	0.00
1078.63757	-92.9344406	0.00
1199.89551	-102.991943	0.00
1327.69678	-100.800079	0.00
1448.29358	-97.8883362	0.00
1570.19263	-97.8009491	0.00
1691.87341	-97.8117599	0.00
1813.42603	-97.2708054	0.00
1930.18567	-91.7937317	0.00
-901.871704	-201.271927	0.00
-785.056641	-195.160477	0.00
-663.471863	-194.346039	0.00
-541.777466	-194.415176	0.00
-419.891479	-194.300903	0.00
-299.283691	-191.615387	0.00
-171.608948	-189.339447	0.00
-47.1323891	-189.321808	0.00
87.5558777	-208.674622	0.00
208.246567	-205.616592	0.00
333.554596	-204.061462	0.00
457.141083	-203.471497	0.00
579.418152	-203.123138	0.00
701.354248	-203.213089	0.00
821.594788	-206.662949	0.00
957.031555	-198.314667	0.00
1078.92639	-197.261703	0.00
1200.11475	-187.802734	0.00
1327.8446	-191.037277	0.00
1448.30884	-194.321899	0.00
1570.18079	-194.420197	0.00
1691.88379	-194.303604	0.00
1814.03955	-193.73114	0.00
1943.12939	-189.117508	0.00
22.2923603	-40.5187836	0.00
-964.35791	-207.575211	0.00
1992.70959	-85.5175171	0.00
2001.9353	-215.243347	0.00
-973.569946	-77.8357391	0.00
-972.723572	-140.491043	0.00
2001.078	-152.579895	0.00
1052.60303	-50.4060326	0.00
992.108215	-241.193542	0.00
-22.0560455	-240.622742	0.00
-512.586365	-243.521454	0.00
1956.54407	-246.620682	0.00
91.112587	-256.336121	0.00
455.055573	-253.441055	0.00
516.640808	-238.882462	0.00
638.271667	-238.765976	0.00
869.063171	-245.372894	0.00
1113.047	-240.323044	0.00
1235.07458	-53.326725	0.00
1112.96582	-50.9952316	0.00
1358.64111	-50.2588234	0.00
1358.7113	-242.161621	0.00
1480.24158	-243.488083	0.00
1601.69592	-243.500397	0.00
1662.39258	-49.1218834	0.00
1541.00476	-49.1044617	0.00
-145.112625	-239.252411	0.00
-145.382233	-54.5695686	0.00
-268.650452	-240.079361	0.00
-268.8255	-53.276062	0.00
-391.010315	-243.225586	0.00
-391.029724	-49.4071388	0.00
-512.595093	-49.1133347	0.00
-633.989807	-243.469727	0.00
-694.718933	-49.1754036	0.00
-755.30011	-243.662262	0.00
-816.570374	-49.8167191	0.00
-873.448242	-245.806992	0.00
-928.173828	-46.4313278	0.00
210.079147	-254.552322	0.00
332.894104	-253.798721	0.00
759.14679	-239.600418	0.00
1235.28845	-238.534286	0.00
1723.12207	-243.403488	0.00
1783.69165	-48.9923401	0.00
1844.94495	-243.011642	0.00
1901.80688	-47.1554298	0.00
1951.36401	-44.8933372	0.00
1843.73682	-48.2758789	0.00
1723.08398	-48.9526443	0.00
1601.73254	-48.9689522	0.00
1480.2594	-49.0637169	0.00
1419.51062	-49.2715836	0.00
1297.32678	-52.6200142	0.00
1173.75977	-52.8378944	0.00
-84.4498672	-53.4265213	0.00
-207.16626	-54.3344955	0.00
-330.503632	-50.4226685	0.00
-451.896393	-49.0286026	0.00
-573.313965	-49.0334854	0.00
-634.015015	-48.9668884	0.00
-755.559326	-49.2661934	0.00
-876.934143	-50.0417061	0.00
-922.999084	-248.130829	0.00
-815.36499	-244.50119	0.00
-694.685181	-243.575073	0.00
-573.325439	-243.570663	0.00
-451.888519	-243.528412	0.00
-330.441071	-242.401428	0.00
-206.947739	-239.318466	0.00
-83.9606018	-239.414017	0.00
39.4464874	-245.805969	0.00
149.124161	-241.353699	0.00
271.395233	-239.797287	0.00
394.579926	-239.207825	0.00
576.743774	-253.354309	0.00
698.027466	-253.5159	0.00
816.629211	-255.527252	0.00
930.983765	-242.401123	0.00
1053.1062	-241.019943	0.00
1173.87891	-238.788422	0.00
1297.49524	-239.563828	0.00
1419.52954	-243.241028	0.00
1541.02649	-243.59227	0.00
1662.41516	-243.538895	0.00
1783.95093	-243.33223	0.00
1905.29785	-242.882919	0.00
-24.3394451	-49.7222595	0.00
138.370346	-55.5687904	0.00
249.659805	-46.9580383	0.00
375.675049	-50.115345	0.00
745.878174	-50.2266998	0.00
622.773499	-50.1905861	0.00
868.521118	-50.5270462	0.00
499.551575	-50.2132454	0.00
930.158813	-50.3194847	0.00
807.385193	-50.1417084	0.00
684.430054	-49.9422607	0.00
561.250732	-49.9474335	0.00
437.919037	-49.9508324	0.00
312.882843	-49.2721863	0.00
196.340775	-37.6859398	0.00
70.383728	-48.9541817	0.00
991.906311	-50.17733	0.00
-359.685089	-193.948349	0.00
1388.11121	-193.771469	0.00
1509.48621	-97.6399307	0.00
1509.4873	-194.634094	0.00
-481.084534	-194.620941	0.00
-602.788025	-97.5908203	0.00
-602.783325	-194.615967	0.00
1631.18933	-97.6026154	0.00
1631.18677	-194.612534	0.00
-724.576294	-97.8748016	0.00
-724.424622	-194.835587	0.00
1752.8158	-97.4413147	0.00
1752.96936	-194.398468	0.00
1872.90955	-95.1344376	0.00
1875.95215	-192.509003	0.00
-847.609192	-100.260628	0.00
-844.569397	-197.633636	0.00
1388.06921	-98.3476334	0.00
-359.724335	-98.5437546	0.00
-481.090546	-97.6339035	0.00
-235.463943	-181.077164	0.00
1263.88916	-111.478745	0.00
1136.40991	-109.952591	0.00
-110.221085	-180.731369	0.00
895.036926	-108.583595	0.00
1018.41077	-108.189682	0.00
771.069092	-106.69014	0.00
648.282043	-106.10482	0.00
525.346069	-106.165009	0.00
401.596283	-106.308922	0.00
273.522583	-105.343201	0.00
144.057358	-118.083847	0.00
20.3488712	-182.828537	0.00
146.489136	-177.866455	0.00
271.393677	-173.939514	0.00
-389.688141	-146.145462	0.00
1418.08337	-146.035873	0.00
1539.60303	-146.080643	0.00
-511.201599	-146.074173	0.00
-632.959595	-146.065247	0.00
1661.3623	-146.035278	0.00
-754.81543	-146.731079	0.00
1783.1936	-145.562744	0.00
1903.53967	-140.965302	0.00
-875.214539	-151.916351	0.00
-235.872803	-112.777069	0.00
1264.2832	-179.911362	0.00
1843.84338	-144.195572	0.00
-815.488892	-148.39978	0.00
1722.34973	-145.925522	0.00
-693.954163	-146.282303	0.00
1136.63354	-180.566666	0.00
-110.601715	-112.877357	0.00
-572.216064	-146.095123	0.00
1600.61914	-146.092041	0.00
1018.75275	-182.270935	0.00
1478.87708	-146.100128	0.00
-450.476379	-146.111313	0.00
1359.38562	-145.957672	0.00
-330.984161	-146.383392	0.00
893.943359	-184.539642	0.00
764.750305	-174.045715	0.00
397.214294	-173.251343	0.00
642.835999	-172.804245	0.00
1954.12842	-131.994797	0.00
1308.61987	-145.837021	0.00
-925.795105	-161.040436	0.00
-192.788223	-147.176056	0.00
1221.07019	-145.454163	0.00
1077.96179	-145.195999	0.00
-67.5969467	-145.985245	0.00
-280.206238	-146.649292	0.00
956.659424	-145.741669	0.00
829.986084	-145.540207	0.00
1178.82483	-145.353622	0.00
-151.424164	-147.05806	0.00
706.532288	-142.47879	0.00
583.950806	-142.2099	0.00
520.530945	-172.823181	0.00
24.2370319	-101.538422	0.00
461.08139	-142.346161	0.00
85.6492691	-147.37619	0.00
-23.4296665	-144.337997	0.00
336.132874	-142.467209	0.00
207.353424	-144.45874	0.00






TRIANGLE_STRIPS 700 2800
3	142	2	3
3	145	2	142
3	144	142	4
3	143	20	21
3	26	15	16
3	28	0	14
3	145	1	2
3	144	143	21
3	143	22	20
3	22	19	20
3	23	18	19
3	24	17	18
3	25	16	17
3	27	14	15
3	28	7	0
3	27	28	14
3	26	27	15
3	25	26	16
3	24	25	17
3	23	24	18
3	22	23	19
3	142	3	4
3	144	4	5
3	143	5	6
3	143	6	22
3	144	5	143
3	145	144	21
3	145	21	1
3	145	142	144
3	163	146	148
3	146	1	21
3	165	147	163
3	149	148	20
3	150	149	19
3	171	160	151
3	171	152	32
3	170	31	152
3	30	15	14
3	14	0	29
3	43	8	44
3	45	42	43
3	164	46	153
3	172	154	153
3	154	40	153
3	155	39	154
3	156	38	155
3	168	162	161
3	166	165	163
3	166	159	158
3	167	160	159
3	171	151	152
3	152	31	32
3	170	30	31
3	29	30	14
3	146	51	9
3	147	50	51
3	169	147	165
3	172	162	154
3	172	153	47
3	153	46	47
3	164	45	46
3	44	45	43
3	146	9	1
3	148	146	21
3	157	37	156
3	147	51	146
3	148	21	20
3	149	20	19
3	150	19	18
3	167	159	166
3	151	150	18
3	160	150	151
3	151	18	17
3	152	151	17
3	152	17	16
3	170	152	16
3	153	40	41
3	164	153	41
3	162	155	154
3	154	39	40
3	168	155	162
3	155	38	39
3	169	157	156
3	156	37	38
3	166	163	148
3	157	36	37
3	158	35	36
3	158	36	157
3	159	34	35
3	159	35	158
3	160	33	34
3	160	34	159
3	161	49	50
3	161	50	147
3	162	48	49
3	162	49	161
3	163	147	146
3	166	148	149
3	164	41	42
3	164	42	45
3	165	158	157
3	169	156	168
3	167	166	149
3	166	158	165
3	167	149	150
3	167	150	160
3	169	168	161
3	168	156	155
3	169	161	147
3	169	165	157
3	170	16	15
3	170	15	30
3	171	32	33
3	171	33	160
3	172	47	48
3	172	48	162
3	268	223	52
3	227	220	224
3	307	266	135
3	232	136	137
3	224	137	138
3	323	309	29
3	221	0	7
3	404	323	221
3	406	357	205
3	292	104	105
3	357	230	292
3	233	105	106
3	293	205	233
3	406	356	181
3	322	310	31
3	309	30	29
3	321	311	33
3	310	32	31
3	355	183	321
3	408	387	354
3	235	234	112
3	235	208	234
3	296	235	113
3	236	114	115
3	402	352	185
3	318	312	39
3	313	38	37
3	319	313	37
3	353	319	315
3	403	208	235
3	403	402	353
3	388	209	236
3	317	314	41
3	312	40	39
3	351	187	317
3	237	118	119
3	299	237	119
3	229	120	121
3	299	229	212
3	238	122	123
3	394	347	189
3	275	239	65
3	240	66	67
3	240	67	228
3	350	228	324
3	380	212	229
3	394	350	380
3	376	213	238
3	274	241	63
3	239	64	65
3	346	191	274
3	242	126	127
3	303	242	127
3	243	128	129
3	303	243	216
3	244	130	131
3	379	193	362
3	336	265	270
3	271	245	58
3	332	245	271
3	272	246	60
3	381	328	362
3	381	362	327
3	379	333	365
3	324	43	316
3	349	316	314
3	385	211	237
3	397	349	385
3	320	315	35
3	354	320	311
3	387	207	295
3	405	354	387
3	308	7	68
3	377	248	179
3	395	348	204
3	291	102	103
3	348	247	291
3	248	69	70
3	277	179	248
3	392	345	203
3	290	249	100
3	345	249	290
3	250	71	72
3	278	178	250
3	396	384	202
3	289	251	98
3	325	251	289
3	252	73	74
3	279	177	252
3	382	201	360
3	288	96	97
3	329	231	288
3	253	75	76
3	281	280	77
3	378	364	331
3	287	254	94
3	331	254	287
3	255	78	79
3	282	255	79
3	375	366	335
3	286	256	92
3	335	256	286
3	257	80	81
3	283	257	81
3	373	369	341
3	258	89	90
3	285	258	90
3	259	82	83
3	225	83	84
3	226	86	222
3	284	222	88
3	222	87	88
3	260	107	108
3	294	206	260
3	409	359	355
3	261	109	110
3	296	236	209
3	262	116	117
3	386	210	262
3	297	262	210
3	300	238	213
3	263	124	125
3	371	214	263
3	301	263	214
3	304	244	217
3	264	132	133
3	374	194	365
3	269	267	54
3	270	265	56
3	305	264	218
3	266	134	135
3	372	195	367
3	223	141	52
3	267	53	54
3	227	140	223
3	226	173	225
3	340	174	257
3	334	175	255
3	330	176	280
3	382	344	363
3	384	343	360
3	370	179	277
3	377	180	276
3	406	358	356
3	406	404	357
3	327	246	272
3	342	273	241
3	361	326	216
3	383	361	342
3	374	337	367
3	372	339	368
3	268	53	267
3	269	55	265
3	270	57	245
3	271	59	246
3	273	272	61
3	273	61	62
3	274	63	64
3	275	65	66
3	228	67	8
3	316	43	42
3	317	41	40
3	318	39	38
3	319	37	36
3	320	35	34
3	321	33	32
3	322	31	30
3	323	29	0
3	276	68	69
3	370	250	178
3	343	252	177
3	344	253	176
3	280	76	77
3	281	77	78
3	282	79	80
3	283	82	259
3	83	11	84
3	225	84	85
3	87	12	88
3	284	89	258
3	285	91	256
3	286	93	254
3	287	95	231
3	288	97	251
3	289	99	249
3	290	101	247
3	291	103	230
3	292	105	233
3	293	260	206
3	294	261	207
3	295	261	110
3	296	113	114
3	297	115	116
3	298	117	118
3	299	119	120
3	300	121	122
3	301	123	124
3	302	125	126
3	303	127	128
3	304	129	130
3	305	131	132
3	306	133	134
3	307	136	232
3	137	13	138
3	224	138	139
3	141	10	52
3	308	221	7
3	404	221	308
3	391	369	173
3	222	86	87
3	389	368	220
3	223	140	141
3	227	224	139
3	232	224	220
3	226	225	85
3	259	225	173
3	226	85	86
3	391	222	197
3	227	139	140
3	389	223	196
3	324	8	43
3	240	228	189
3	300	229	121
3	397	380	350
3	291	247	102
3	230	103	104
3	287	231	200
3	231	95	96
3	307	232	220
3	232	137	224
3	293	106	107
3	292	233	205
3	295	207	261
3	234	111	112
3	235	112	113
3	405	403	353
3	297	236	115
3	402	388	352
3	398	385	349
3	298	237	211
3	301	238	123
3	394	376	347
3	346	239	190
3	346	274	239
3	347	240	189
3	347	275	240
3	241	62	63
3	342	241	191
3	326	242	303
3	302	242	215
3	304	243	129
3	328	243	304
3	305	244	131
3	333	244	305
3	270	245	194
3	245	57	58
3	271	246	193
3	246	59	60
3	345	290	203
3	247	101	102
3	277	70	71
3	395	377	348
3	325	289	202
3	249	99	100
3	278	72	73
3	392	370	345
3	288	251	201
3	251	97	98
3	279	74	75
3	343	278	252
3	280	253	76
3	344	279	253
3	286	254	199
3	254	93	94
3	334	255	282
3	281	255	175
3	285	256	198
3	256	91	92
3	340	257	283
3	282	257	174
3	341	258	285
3	284	258	197
3	283	259	173
3	259	83	225
3	294	108	109
3	409	358	206
3	295	110	111
3	408	359	207
3	298	262	117
3	401	386	351
3	302	263	125
3	393	371	346
3	306	264	133
3	337	264	306
3	269	265	195
3	265	55	56
3	339	266	307
3	306	266	219
3	338	267	269
3	268	267	196
3	268	52	53
3	268	196	223
3	269	54	55
3	338	269	195
3	270	56	57
3	336	270	194
3	271	58	59
3	332	271	193
3	272	60	61
3	327	272	192
3	273	62	241
3	273	192	272
3	274	64	239
3	274	191	241
3	275	66	240
3	275	190	239
3	308	276	180
3	276	69	248
3	277	248	70
3	277	71	250
3	278	250	72
3	278	73	252
3	279	252	74
3	279	75	253
3	330	280	281
3	280	176	253
3	281	78	255
3	330	281	175
3	282	80	257
3	334	282	174
3	283	81	82
3	340	283	173
3	284	88	89
3	284	197	222
3	285	90	91
3	341	285	198
3	286	92	93
3	335	286	199
3	287	94	95
3	331	287	200
3	329	288	201
3	288	231	96
3	289	98	99
3	289	249	202
3	290	100	101
3	290	247	203
3	291	230	204
3	348	291	204
3	357	292	205
3	292	230	104
3	293	233	106
3	293	107	260
3	294	260	108
3	294	109	261
3	295	111	234
3	295	234	208
3	296	114	236
3	296	209	235
3	297	116	262
3	297	210	236
3	298	118	237
3	298	211	262
3	299	120	229
3	385	299	212
3	300	122	238
3	380	300	213
3	301	124	263
3	376	301	214
3	302	126	242
3	371	302	215
3	303	128	243
3	326	303	216
3	304	130	244
3	328	304	217
3	305	132	264
3	333	305	218
3	306	134	266
3	337	306	219
3	307	135	136
3	339	307	220
3	308	68	276
3	404	308	180
3	356	309	181
3	322	309	182
3	355	310	182
3	355	321	310
3	311	34	33
3	354	311	183
3	351	312	186
3	351	317	312
3	352	313	185
3	352	318	313
3	314	42	41
3	349	314	187
3	315	36	35
3	353	315	184
3	316	42	314
3	324	316	188
3	317	40	312
3	317	187	314
3	318	38	313
3	318	186	312
3	319	36	315
3	319	185	313
3	320	34	311
3	320	184	315
3	321	32	310
3	321	183	311
3	322	30	309
3	322	182	310
3	323	0	221
3	323	181	309
3	350	324	188
3	324	228	8
3	384	360	325
3	325	201	251
3	383	215	326
3	326	215	242
3	327	193	246
3	381	192	361
3	328	216	243
3	362	328	217
3	382	363	329
3	329	200	231
3	364	330	175
3	378	363	176
3	331	199	254
3	378	331	200
3	379	365	332
3	332	194	245
3	333	217	244
3	365	333	218
3	366	334	174
3	375	364	175
3	335	198	256
3	375	335	199
3	374	367	336
3	336	195	265
3	337	218	264
3	367	337	219
3	372	368	338
3	338	196	267
3	339	219	266
3	368	339	220
3	369	340	173
3	373	366	174
3	341	197	258
3	373	341	198
3	342	192	273
3	383	342	191
3	343	178	278
3	360	343	177
3	344	177	279
3	363	344	176
3	396	345	370
3	345	202	249
3	393	346	190
3	390	346	371
3	399	393	190
3	347	190	275
3	400	392	203
3	348	203	247
3	349	188	316
3	398	349	187
3	350	189	228
3	397	350	188
3	401	351	186
3	398	351	386
3	401	352	388
3	352	186	318
3	353	185	319
3	405	353	184
3	354	184	320
3	408	354	183
3	409	355	182
3	408	355	359
3	409	356	358
3	356	182	309
3	407	404	180
3	357	204	230
3	358	205	293
3	358	293	206
3	359	206	294
3	359	294	207
3	382	360	177
3	360	201	325
3	381	361	216
3	361	192	342
3	379	362	217
3	362	193	327
3	378	176	330
3	363	200	329
3	375	175	334
3	364	199	331
3	374	365	218
3	365	194	332
3	373	174	340
3	366	198	335
3	372	367	219
3	367	195	336
3	389	220	227
3	368	196	338
3	391	173	226
3	369	197	341
3	370	277	250
3	396	370	178
3	371	263	302
3	390	371	215
3	372	219	339
3	372	338	195
3	373	340	369
3	373	198	366
3	374	218	337
3	374	336	194
3	375	334	366
3	375	199	364
3	376	238	301
3	399	214	393
3	377	276	248
3	400	179	392
3	378	330	364
3	378	200	363
3	379	217	333
3	379	332	193
3	380	229	300
3	394	380	213
3	381	216	328
3	381	327	192
3	382	329	201
3	382	177	344
3	390	383	191
3	383	326	361
3	384	325	202
3	384	178	343
3	385	237	299
3	397	385	212
3	386	262	211
3	398	386	211
3	387	295	208
3	405	387	208
3	388	236	210
3	401	388	210
3	389	227	223
3	389	196	368
3	390	215	383
3	390	191	346
3	391	226	222
3	391	197	369
3	400	203	348
3	392	179	370
3	399	190	347
3	393	214	371
3	394	189	350
3	394	213	376
3	407	204	357
3	395	180	377
3	396	178	384
3	396	202	345
3	397	212	380
3	397	188	349
3	398	187	351
3	398	211	385
3	399	347	376
3	399	376	214
3	400	348	377
3	400	377	179
3	401	186	352
3	401	210	386
3	402	185	353
3	402	209	388
3	403	235	209
3	403	209	402
3	404	181	323
3	407	180	395
3	405	184	354
3	405	208	403
3	406	205	358
3	406	181	404
3	407	395	204
3	407	357	404
3	408	183	355
3	408	207	387
3	409	206	359
3	409	182	356

CELL_DATA 700
SCALARS stress float 2
LOOKUP_TABLE default
-479107.28826056	-63393.060990916
-654307.632941645	-148786.811460997
-695398.127040446	-243617.14684512
-785377.283448083	-959979.93876614
-1547407.02323024	-2283850.60622023
-1271124.83160164	-2409972.9911213
-791330.636722312	-210196.005235723
-809660.588297446	-637204.194027444
-1094052.40159693	-973278.275317544
-941135.36403127	-1288923.96267401
-1130816.97771176	-1663781.49249137
-1340651.90889797	-1932336.69083691
-1483672.31396911	-2136032.82751285
-1509882.064782	-2384523.42774198
-748455.337091925	-2669537.20018696
-1291502.60755478	-2352320.53102726
-1543359.36918417	-2330821.44813208
-1560339.65448123	-2164098.17885698
-1546210.73903511	-1990091.01813624
-1469188.75393791	-1774186.30575763
-1328915.43416188	-1451137.65189595
-619480.030356107	-100199.8136566
-895167.058168719	-168012.593680583
-1058346.34332999	-476852.843312687
-957161.420503627	-623564.939453073
-879707.946822963	-412874.27927792
-847145.259555821	-323811.930721088
-870533.040390446	-484456.051860134
-837292.164712549	-294669.13604596
-638020.887882784	-1815189.04018919
-572686.811019441	-603333.241986792
-784623.961834703	-2705129.97480553
-677246.074726693	-1960684.49029688
-809131.949513078	-2466798.62794681
-1173531.32955332	-4158030.94093456
-1412819.98967717	-4844054.44952452
-1409441.48041856	-4464525.39634432
-1103093.26062322	-3479762.23206223
-945890.361501349	-3358716.9192622
-100000.48974141	-349789.44591813
-254072.383638981	-895978.424678765
-594260.996557384	-793374.299154072
-567956.41729134	-1758046.83453431
-902760.043721521	-2779465.54424373
-1061253.99680924	-3549314.29654943
-1135836.38397072	-4220751.04114209
-629056.313391422	-2286180.17328361
-682006.39266379	-2874715.12972346
-1020214.64295433	-4106686.16268292
-1059110.49020906	-4185497.01761016
-1177471.84454546	-4150647.40074662
-1306227.3139758	-4633725.14310649
-1180440.12410545	-4188025.89321963
-946583.442242399	-3358915.15087655
-720179.441138078	-621834.350836932
-715055.994895124	-998512.704466496
-662798.650499734	-2574203.45623684
-778501.784464413	-2103702.5359428
-696202.823054419	-891177.55382102
-463582.972943738	-828504.012322706
-332146.995093733	-741225.307736381
-355469.430207484	-544694.271469413
-881606.504783093	-661385.423663889
-651563.952613961	-1380843.18473759
-1224928.5864646	-4755771.21795163
-723766.764498833	-980151.907286607
-644571.181665875	-1373113.54956144
-820534.731582703	-1999923.20169986
-972807.67090436	-2512931.49434583
-1045091.04208294	-4125470.10452305
-974056.720817332	-2844795.92112877
-1084209.45787378	-3804996.70461307
-1107621.37039692	-2878413.32724204
-1133582.17013871	-3174147.04902075
-1201332.37531711	-3191563.36141621
-1174795.32871854	-3235803.55110719
-668858.840924338	-2368189.48352048
-715934.159312837	-2108599.303663
-740963.145688189	-2491496.10729348
-908482.788003189	-3219309.00457606
-874462.248173207	-2752529.27477446
-1120324.85545981	-3971788.6877203
-937963.923512623	-3680019.31880239
-1286618.47487119	-4562522.97600158
-728002.696282647	-2667433.31741037
-1411088.25681129	-5004937.54780905
-1479688.89869084	-5248903.95661125
-1285201.025014	-5089351.30503885
-1497348.21464435	-5311936.43695705
-1340594.53496353	-5239138.69142026
-1469517.56558567	-5213271.81269402
-1350908.70946517	-5227576.34367352
-661680.489472228	-1056531.48844088
-612317.434915563	-1043741.21209879
-583702.502234688	-1006032.69771939
-680681.662008867	-1021444.42778159
-502123.561594381	-1795221.2309196
-790079.772672323	-2684756.92737488
-488489.595019823	-1728238.01554755
-640647.077446336	-1178208.51646902
-976731.674561463	-3957930.73150536
-937320.596308848	-3503605.30987566
-778874.489126287	-3184392.90087682
-960457.931293504	-3977072.33028506
-918846.183963554	-3224404.91183499
-1047854.73791295	-3815926.24511633
-702303.773869127	-2303480.65730515
-844691.9809205	-3251607.73622966
-739133.795416405	-2443525.21911736
-965729.121585646	-3808176.90391775
-1202134.70851721	-3252985.34274422
-1364987.04447336	-3699669.9700779
-1434232.11590865	-5088124.39066921
-1405159.8899353	-5155153.35110174
-505796.174571478	-813476.081478154
-595307.568753752	-830956.996419579
-1414728.51021844	-55.2834609549027
-1413257.2243057	32.3955358237727
-1413270.99008226	1530.2976047839
-1413029.46555275	345.731671471964
-1413069.93168595	61.0305299999891
-194626.958265295	-3376972.99173988
1059110.77583802	-2541636.24444778
-37847.1319868269	-2774860.80994569
-333417.247438044	-3365523.39070033
-349400.658043261	-3115393.17247279
-347783.287505691	-2979529.51199178
-321674.253924695	-3425527.38282845
-270710.626570924	-3423156.35605708
-292701.989048155	-3330254.93030793
-663311.37605888	-4473376.15413411
-699754.832644911	-3705895.42092468
-788674.41109257	-5156502.6103829
-1055898.3693881	-4610079.37325121
-507201.556557545	-4950747.36460535
-346698.238340466	-5037298.18158163
-235274.313488771	-4884337.13038069
-295750.532084216	-4997045.8695774
-397241.928856363	-4745322.65613478
-536363.707550031	-4160462.13849894
-802249.958419448	-4659621.21769014
-1137983.55461669	-3554485.24891006
-1324082.94724762	-4466475.09474802
-1001913.79326527	-4752007.13880219
-873030.371469421	-4928933.82847775
-280122.257334621	-4814731.84465099
-576626.668015291	-4935929.29955724
-470784.146007149	-4117165.64270987
-1225264.26674251	-2051841.86889976
-1398878.3002108	-3251013.19372607
-1176589.48820981	-2599997.31568875
-1242808.8213598	-1949956.82367028
-1292841.99369738	-1574282.88601538
-1540521.59722124	-863123.814087001
-1462514.73498332	-1089568.80960955
-1618409.31979763	-222171.690103556
-1420698.23570861	-189426.293170691
-1232758.62740155	3136.81185507064
-907432.674067574	-23418.0780341711
-1168935.61816644	4932.37076465873
-1310622.76110609	-436624.335037257
-1455922.41138237	-808450.179121583
-1509963.96936801	-539887.967228028
-1566780.39346665	-199191.635591022
-1320236.76191061	1413.1351626839
-1137326.96836928	7667.74936574535
-1386150.4397533	9675.34566437587
-1495572.4647607	50927.0409318655
-1472256.3139742	51079.0607263788
-1448025.16912567	36071.5263765791
-1454045.04658196	34589.3629306858
-1425159.74749246	17881.6763278025
-1415477.79504406	6834.09245877701
-1412590.8965522	1598.46137281077
-1407436.88167629	-72.0784145214129
-1405904.84748031	4614.72966081312
-1390470.80850237	132.15166769689
-1412201.65871308	25985.5803999314
-1417438.38229799	10275.9654074571
-1411784.90075395	12055.9786729174
-1216449.20870867	-478561.909126204
-1313224.52893266	-1557831.42080246
-1151232.54858394	-1886466.1619815
-1404253.23933408	-1654358.57938086
-882749.610818706	-5241037.41406932
-775737.242374782	-5090873.65891614
-206940.984263066	-4981734.99970678
-415082.653113742	-5082879.80369645
1332310.3643409	-2519896.91056971
21628.1074090506	-2788056.85460938
-196346.200662459	-2650581.84938084
-304858.143481919	-2719875.95492002
-252329.478028447	-2682357.11474117
377315.372717699	-2792687.09792841
210980.016271514	-2748289.58302219
-87201.8125231188	-2715927.79039668
-113629.459539051	-2706973.22709072
-122505.161165593	-2729790.58304558
106683.604927741	-2825197.5304475
76165.0972245496	-2802926.66718344
-223.348800827633	-2754275.38261327
-42935.0511520058	-2771050.38273534
-48182.3994343482	-2785345.55147654
14247.3487872703	-2836245.83400346
14048.2280655296	-2827138.30013905
-653.702493085759	-2804772.72192935
-22216.5376704086	-2806792.02514836
-16534.9547108093	-2819810.61897065
-11141.7482776949	-2840041.31945883
-9201.06344013405	-2842174.93408645
-4697.56233544229	-2835092.59230937
-6406.00523950881	-2833119.16087533
-7152.03652907186	-2835357.45222701
-12751.4450607188	-2841845.84712691
-9708.76511561498	-2842073.65182299
-6309.15192523878	-2840834.44957369
-5406.34165847395	-2840408.56920648
-5581.865151793	-2840940.95050335
-10293.338626198	-2842074.25790331
-8821.01008923631	-2842014.84581625
-7007.27124167443	-2842429.29338964
-6014.92656489112	-2842633.85183452
-5986.11116599361	-2842484.48326465
-8799.0070755342	-2842091.26696054
-8093.09419780318	-2842031.48656586
-6956.53120752749	-2842604.49852371
-6321.60436767922	-2842754.00828787
-6614.25476039108	-2842856.21904103
-209547.96049344	-4234636.26066168
-171234.99543799	-4219949.07931134
-329926.811578215	-4666619.19186776
-155980.684730185	-4847900.71896076
-542595.184695558	-4607324.46678083
-877905.737641988	-3092312.99591433
-777044.416094507	-3010849.23569148
-888432.721090458	-3718168.68717556
-1587748.36246408	-301787.099814495
-1566335.25964137	10942.568161468
-1514016.50006007	11930.0173611844
-1568484.70968752	-12376.0625133381
-1428109.16721552	18055.6910916116
-1416326.27520648	7026.06893880514
-1413827.97547523	2539.67236198299
-1414525.74540607	-32.1635298790643
-1413144.80771707	-70.2550108669093
-1417497.00960322	7386.45453007495
-1413613.06257417	2057.90404168703
-1413522.35101718	687.141411464079
-1414513.73495319	-4.43311392213218
-1415601.13471088	64.2709250971675
-1413903.20869908	-44.2809608653188
-7716.59573393478	-2842359.71895992
-7839.65644298983	-2842130.85489205
-7762.93608026765	-2842035.7526414
-6253.66325838934	-2841434.4157896
-7034.65318230051	-2834244.51967201
-11617.2785387082	-2819751.3162356
28435.885706644	-2810999.43420003
514.457682839711	-2734108.15535027
-311162.990984209	-3807780.53042206
-299264.896896835	-2899707.45901036
-1386990.19443851	10637.470333933
-1343849.87829378	19004.4376143049
-1447207.45168168	28643.9897030265
-1425494.57485908	19236.4776916299
-1412569.80126884	4417.62566697761
-1413227.8902636	1097.40660748479
-1414665.21128356	30.2060185220325
-1414120.20928589	-52.5755061645759
-1411174.34180147	-81.499143443536
-1401054.2205379	-21.8865122582065
-1374306.96693457	439.073519993923
-1342518.46855489	5545.88948749815
-1227560.86547495	9516.46500370413
-1024966.30978254	-154.224229456217
-862763.650226316	-120140.23091006
-1271649.86654171	-1092441.25652185
-1459945.6119853	-2562935.36174698
-1360553.08373783	-3928048.33073237
-1250298.90600914	-4873092.00556228
-1129008.26162706	-5168520.40503025
-1058689.86954305	-4936802.31808727
-851358.575445459	-4150833.28082261
-95633.6750894538	-3168557.88302073
680214.724259784	-2744426.03927704
17547.9845710227	-2824166.50638847
4328.68020658405	-2837159.87864256
-4179.72771763266	-2840630.72844791
-13745.5639135414	-2840993.58658532
-13783.782729381	-2841536.87560269
-11469.4246328189	-2841997.56564718
-8436.32077769772	-2841988.45655035
-8503.90423021116	-2842034.35406143
-8019.17476661736	-2842255.03206951
-6362.83360076603	-2842833.61093264
-6242.26210082113	-2842757.45230649
-5664.43877875037	-2841811.01718557
-5498.26852685749	-2837763.91840388
-8930.52413911581	-2825416.75589467
-24743.6665753669	-2795438.0798841
-71485.1666797577	-2740004.41437772
-182697.89861545	-2684625.66398046
-331540.19935382	-2774190.03753928
-305479.909353761	-3211935.84343829
-277704.657748209	-4256608.89811228
-186197.414256484	-4854827.73191908
-170957.442445875	-4919741.651308
-392221.968610767	-4557504.63372326
-691058.686232232	-3657835.02772623
-1067208.36572522	-2478461.59227142
-1413782.07585001	-1387590.70872234
-1602759.34298591	-482229.334762334
-1600536.78774835	-67864.7094074415
-1529205.24822478	44406.2174527124
-1468216.98551684	45710.3732029154
-1434165.40573284	26174.5094158838
-1419588.43945562	11527.8254622398
-1414530.61791018	3989.86175962363
-1413094.40671252	592.226418829639
-1412997.44740422	-18.5381253567757
-1413146.64670345	-62.0539339988027
-1415237.60504432	43.9955752235837
256164.489492261	-2478951.66852416
250944.1024302	-2656406.10990326
-7016.49256041111	-2842380.36721136
-6680.54872327461	-2842738.7327703
-1413423.21326612	318.673435025732
-1414217.72741906	-78.9486175817438
-1413361.26871884	3.14969838317484
-1413150.15537399	347.433425066061
-7548.63295081374	-2842301.40923405
-7872.71437893505	-2842106.90025426
-7336.38392364932	-2842514.21918247
-6575.76829192764	-2842540.9814358
-1413531.90203668	-97.7465457972139
-1414032.78821266	111.265486000455
-1047389.33798624	-456864.120886193
-1224495.37938416	-163526.328249637
-1547320.61589738	-626103.579728926
-1471586.23199858	-525215.911831369
-256254.324671266	-2692496.70627279
-352420.959862247	-2857265.20439696
-10230.8876903751	-2829311.28816557
-13022.0384965619	-2821077.81714249
-1413172.9676339	313.651528150542
-1413082.27718959	71.3266570626292
-264326.389749353	-3833976.55707505
-354299.115170725	-3444792.99904273
-174375.002713299	-4852478.0861051
-212921.393211734	-4968311.93397723
-291181.620809664	-4827376.06759824
-433906.945176243	-4863295.27359163
-707370.245917445	-4008182.5661818
-603863.747570158	-4130200.06428741
-1193685.30727241	-1586945.05462126
-1215444.7289791	-2543886.50067225
-1593515.07361307	-124227.483074806
-1519316.97676582	-93110.8291619388
-1376242.41597724	10925.2673993072
-1279274.18851216	21654.5384133779
-1352964.86494923	-15185.85231533
-1217657.71312547	-43996.3419257938
-1294366.20618065	7307.56023094186
-1388506.79241043	7497.52214300976
-1476229.51811062	41930.0019913996
-1505900.55463378	42307.0172717344
-1436357.06701853	32299.5358628039
-1438556.35499566	25808.1720461665
-1420404.4826904	15189.0259746577
-1421520.74359268	11852.7193954441
-1410193.1545745	2805.32660883234
-1411055.2201811	1107.50838192471
-1398606.11809825	7188.61430900369
-1393678.69247573	2755.4911345336
-96652.9262042085	-2700466.0745962
-233422.442920456	-2677625.25746124
207098.343463209	-2815457.75006043
-147294.142571486	-2703617.72116364
-28626.1626702877	-2758681.07795532
-104576.064833255	-2726054.42440613
48080.1483807631	-2832413.83613503
-30150.3224335563	-2757762.93296421
-28156.579828147	-2805405.5458557
-38510.4063003099	-2786191.28676106
-3274.0605321147	-2838539.740855
36825.8560861312	-2817958.73324359
-6940.29422484967	-2842226.44531676
1322.92711637123	-2833292.0015561
-5886.48909235442	-2838934.1896315
-6160.67582740542	-2836127.26334656
-9587.02587515279	-2841710.58671787
-9459.6745828404	-2840981.97056994
-5699.50600257283	-2841967.51579963
-5434.9443460498	-2841306.92240836
-8901.01825367542	-2842264.15318049
-9291.33254286856	-2842078.72615668
-5953.14125770539	-2842447.92945698
-6166.43190523051	-2842608.96360779
-8581.94257056294	-2842317.43882898
-8452.94069306948	-2842145.25996253
-173285.47327487	-4594899.05058655
-307372.210595003	-4261450.79189374
-172534.506982515	-4971486.03050377
-267523.092186447	-4890262.45168612
-1057318.47957743	-2889533.41050322
-878398.603939172	-2952566.59449288
-1531688.06822715	34286.7635376608
-1454620.40846915	24003.7695542371
-1414764.48925179	5680.59771182027
-1415225.03363358	4294.25091419322
-1413808.53721986	821.837231166427
-1415283.96894577	349.458692816319
-1413435.15391212	1038.47357109014
-1414009.65333739	2295.48864805826
-1414385.94555246	349.17842692812
-1414645.7991857	68.5938071119599
-1415461.00692169	-27.5552042877534
-1414127.92796965	-61.1403800499393
-1415635.43319434	165.433721177164
-1413719.16971793	67.3064612806775
-1414045.88850549	645.405845165369
-1412464.43604208	457.87949597917
-1404951.10331256	1780.29401310952
-1408831.15672652	1560.73133878142
-1374190.91033762	3969.51569169696
-1400551.26282812	4134.55925265933
-1350953.69869449	922.400176107418
-1369370.87493275	14761.8379745483
-1286788.84219605	2691.09462439676
-1309785.77634453	22623.2128246755
-1199188.71075288	4241.02883824112
-1234707.97559131	-31.6736943871365
406002.013398663	-2617055.41411871
254321.870813359	-2831662.65149333
180761.046137358	-2836189.61053221
100340.01159432	-2839342.79830537
58538.7071720371	-2841169.10357675
27784.8555614851	-2841931.36263138
8807.31059769611	-2842195.63200694
-1638.4762710419	-2842255.92447321
-8343.07658805139	-2839613.07673174
-5265.33676956524	-2837237.90298971
-9835.97087819572	-2842118.99306489
-7301.76808252442	-2841835.88355701
-9286.6614946262	-2842040.4188316
-7883.13440779643	-2842107.40172649
-9390.15687990678	-2842077.88701384
-7734.5443946037	-2842141.35237473
-6299.25874392036	-2842799.53548013
-6694.01619511354	-2842777.91731168
-5696.13596335519	-2842226.08033193
-6226.98293589638	-2842206.28184486
-5449.89861603035	-2839479.24200454
-5471.49733428587	-2839424.41926765
-8292.99324683425	-2830378.35289103
-5593.16814817302	-2830299.42320508
-10375.4398340406	-2806789.35160393
-14381.1917262441	-2813346.54356918
-64903.7427411394	-2759418.33412093
-81206.9077051497	-2761945.72914466
-161079.119108828	-2694180.34565603
-186044.98901826	-2694174.80609967
-315145.734817472	-2738314.23005695
-254944.927561978	-2720672.13403142
-324165.994036876	-3080167.42662749
-355153.787306219	-2944991.66216028
-324823.518051217	-3682824.48386309
-214964.130596848	-4009059.79139594
-227060.027504693	-4463904.82927616
-152601.874501091	-4699126.55737595
-210306.924416704	-4977389.56688237
-188861.973853788	-4955940.07616149
-430638.342507836	-4331539.11066954
-314201.766813552	-4524945.22192877
-746669.670458653	-3342481.54504736
-568484.782691666	-3608725.30875607
-1073726.98765107	-2107975.07274746
-921193.056271547	-2454511.16329725
-1453162.45046213	-1055206.37493446
-1443851.25198581	-1411373.81058837
-1595625.61320989	-320619.166454265
-1580924.05379337	-500969.629428478
-1571063.72703569	-18444.4332461114
-1548393.18570124	-70202.270982117
-1499449.16011926	51825.915495442
-1475664.16886424	44239.3745971979
-1451209.94602401	42682.9237020662
-1441369.9773962	45469.1750851497
-1426551.61960924	22783.2285428104
-1422687.17377344	26057.309695948
-1416776.89700181	9568.40885259747
-1415454.96684937	11537.8622196579
-1413737.33656031	3118.0068111585
-1413440.6956331	4014.54133303266
-1413188.89276529	925.950292523019
-1413169.42612235	898.389015577268
356700.58203155	-2822128.99950507
-94424.0469697875	-2542333.44865084
-289040.847942769	-3749652.18209148
-460349.599690965	-4151855.60307377
-476401.636320746	-4635134.38003016
-666869.10322578	-4680394.44305202
-1112154.49136419	-5122292.01465069
-549396.395682612	-5147181.45956421
-971703.304571007	-3185075.55335464
-1235568.7801204	-2970459.66506723
-772089.51322201	-4432010.09414904
-1042828.67374975	-4188564.08228005
-1293189.80104748	-1802755.62470014
-1175773.01031875	-1726811.16085465
-1182099.41114438	-5089513.50985434
-633879.102253973	-5088459.24728189
-1214460.07067466	-1266231.62220853
-1369249.4853206	-933894.571673248
-1175388.9941836	-2791450.08132167
-1299333.53241162	-2283499.05476263
-1055402.66554819	-4229195.51751878
-1158583.33695076	-3620713.70359767
-926041.132183204	-5088698.60125074
-963201.868699917	-4637705.46001637
-822432.141148307	-5230319.22508734
-828648.113413787	-5078664.44534778
-730604.195289648	-4901544.84793759
-727862.589502421	-4967369.89226078
-558093.749279307	-3787586.90247535
-632724.7364332	-4204112.92245792
152952.506139484	-2804789.81182502
-286114.766335432	-3348082.62022214
-1317345.22797193	-400830.898731078
-1179394.69242597	-39787.5266515288
305.8815890837	-2784081.09616341
-16922.087945963	-2786218.97355592
-1463727.60913148	35006.3259336712
-1456702.05951614	51260.5796032524
-1405387.40744101	2605.66148125264
-1420632.58980969	14738.1198228557
-1430139.66607396	35797.440273143
-1426220.46374374	15363.7286545471
-2032.09813302499	-2819248.40088426
-6993.6679467042	-2821030.96394782
-6299.07711822818	-2838788.56171972
-6448.71391607844	-2837869.15586855
-5268.55251278541	-2836067.8798435
-7468.15970926127	-2835936.70757931
-1414384.07481343	4264.28877429816
-1411064.20967699	885.985983052524
-1418061.69437401	17853.8717258401
-1417147.33415451	6431.44643116358
-7763.05009348317	-2841727.16003916
-6462.90234189433	-2841248.81011369
-5841.43675877409	-2841275.17491813
-5952.60849800077	-2840906.54934868
-1413587.37198968	1390.92670816404
-1413262.49348756	207.902587824385
-1414074.62126051	7055.66626266332
-1414082.54824726	2092.26695545588
-1413544.25660919	268.397528079106
-1413947.23236119	0.636171471560374
-1413202.72995853	2071.13835397502
-1413353.00764031	402.122048061923
-7822.62441151566	-2842431.81999432
-6807.96598784137	-2842159.98907728
-6502.80191268632	-2842616.79092874
-6210.04637324135	-2842273.9157807
-1394498.24391409	5869.70635227423
-1379979.03544453	31598.519934456
10453.9377002942	-2834139.88653698
14006.1690147182	-2808883.04180237
-710.238140394446	-2839275.69497706
-633.998895910569	-2829901.85987088
-13510.053891685	-2752479.57220184
-47132.1179159069	-2725009.55941729
-1382253.72535434	5549.24375283829
-1430765.39847729	31731.3624578799
-1459510.08702901	6609.6717222567
-1379515.81189633	-627.076746193692
-31309.6680727267	-2686811.1420612
-146878.618453233	-2679607.32692672
-1326120.74556149	-1115640.80339499
-1313943.88126845	-2322051.54541528
-1373383.34679861	-125974.097869624
-1474078.08613998	-990436.89164442
-1068785.01845834	-3660149.06445661
-1134112.10271529	-3039546.19019381
-839443.534223661	-4229280.61039932
-963443.026543744	-3971960.34115974
-759433.804489781	-4912330.43691282
-604818.835607339	-5088099.87428369
-613370.559975185	-5192876.383888
-484261.168474644	-4971624.2673048
-400027.087555272	-4264407.76715197
-328446.90415227	-4675172.07726001
-284923.024138849	-3799600.21107682
-425617.372325888	-3800133.97890298
-167086.72745484	-2767472.67829441
-326307.081254566	-2865273.99008391
-330845.392823222	-3834124.59338
-232624.548280189	-3802861.9707423
-241328.174240329	-4619342.67795747
-196750.61476343	-4604479.75888969
-8492.91851382097	-2828277.66035875
-24834.2819716933	-2809806.46455954
-1414022.25295461	34561.2129524631
-1386859.52984776	28341.02180107
-1411679.0494942	18231.3425766642
-1401045.32218956	15737.643967543
-4233.17207879038	-2835438.40850925
-10190.7561998714	-2830624.48663019
-7319.7322391381	-2840703.72973904
-6288.30048313458	-2839104.51385233
-1412158.77007769	7537.38945255103
-1409137.6751545	6728.47412346152
-7870.40190959978	-2842220.47740734
-6021.3178778491	-2841835.93105901
-1412937.52964028	2370.6981522264
-1412577.91556665	2242.90264469851
-1413514.69325659	145.042389761889
-1413767.25046353	425.408823040547
-7315.31419681711	-2842482.37550318
-6420.8750316815	-2842489.09185013
123739.873827358	-2777411.32275988
32680.8614031962	-2780255.83044576
-1534989.17835968	29776.3114845764
-1485370.30443689	35611.0203976552
-1413558.46954537	1023.27556016354
-1413327.28731608	1108.85494844976
-6928.10719728842	-2842270.43619949
-6747.88914148673	-2841910.35495644
-1415159.0411479	3804.89499936881
-1411251.56017624	4027.73579581466
-6644.45486267796	-2841872.18200389
-5642.11698971293	-2838762.21663513
-1587886.65628725	-118642.002926944
-1466383.37864268	-14481.003828948
294180.06004273	-2694741.12749193
-54415.736468506	-2755967.02137172
-6349.97330006911	-2840044.79613844
-3473.54334128718	-2828938.72919103
-1420621.27129202	10217.2156493972
-1405801.20401854	10560.357067633
-1546449.7161886	-624512.065568587
-1535858.86187309	-271033.18458575
-1434892.92124142	21776.1030902473
-1394561.59744687	21893.026682292
-15563.2881602912	-2822300.61361473
5327.08870036271	-2821375.97474851
-1431818.55931531	22295.1389626426
-1417839.17064397	42170.3079763243
-39932.7419010327	-2790826.64263498
25102.2688767116	-2793682.23415739
-1337641.18458244	-1718963.50962783
-1329749.282015	-1026737.07206241
-1102118.06226308	-3116661.90544752
-940774.45325783	-2304317.91818365
-261675.400926748	-5008098.59410685
-283647.386457055	-4985093.68309964
-735150.89881994	-4215031.51541252
-620076.036299438	-3576022.22982483
-1413633.20083186	-9.43158703844529
-1413600.38284108	47.2721582128434
-1423681.85120453	46592.6693021172
-1384280.90236498	27731.7196026882
-7056.48140335898	-2842655.60764172
-7132.12266778619	-2842671.87415492
-170978.462259788	-2702542.92906175
45488.6397894148	-2735187.19275695
-1398491.15382373	-34351.6161833698
-1498063.80088358	15787.8367706415
-1453786.15577795	-206069.295154158
-1547357.63108252	-279482.867342297
-314265.404966343	-2754245.70496945
23464.3261593241	-2656758.76716272
-17962.8916904565	-2807391.32496454
-64961.8779147251	-2771416.00069482
-1533949.00274251	-1096373.81367584
-1318107.08380517	-939367.666256019
-1091044.58127754	-2255120.09801123
-1305305.05567142	-2401394.61587869
-1461344.93834484	-74499.8302640336
-1546586.75770142	-21497.5481589794
-57539.2429021918	-2673308.7320972
35902.2172235164	-2726441.39020212
-827657.263144728	-3563378.43941209
-989586.243137835	-3710354.26102469
-621315.446774437	-4569445.04430074
-661543.430498603	-4642973.15395592
-439695.140399004	-4879743.7603861
-395406.332909774	-4534012.16969611
-198516.964861589	-3077878.33037504
-175690.663439473	-2600312.57846544
-511649.51738049	-5027877.92972576
-414540.106736058	-5047833.34391977
-270082.618370328	-3349128.81421971
-230994.751760844	-3313769.70729648
-219757.518036126	-2756690.61147642
-192827.882029795	-2883715.59158231
-435706.567718834	-4928476.67891167
-276165.997240263	-4904704.10084147
-228423.431773352	-4233725.56265327
-352774.115389618	-4259667.57769688

